% MIT License
%
% Copyright (c) 2021 Johan Ludde Wessén
%
% Permission is hereby granted, free of charge, to any person obtaining 
% a copy of this software and associated documentation files (the "Software"),
% to deal in the Software without restriction, including without limitation 
% the rights to use, copy, modify, merge, publish, distribute, sublicense, 
% and/or sell copies of the Software, and to permit persons to whom the 
% Software is furnished to do so, subject to the following conditions:
% 
% The above copyright notice and this permission notice shall be included 
% in all copies or substantial portions of the Software.
%
% THE SOFTWARE IS PROVIDED "AS IS", WITHOUT WARRANTY OF ANY KIND, 
% EXPRESS OR IMPLIED, INCLUDING BUT NOT LIMITED TO THE WARRANTIES OF
% MERCHANTABILITY, FITNESS FOR A PARTICULAR PURPOSE AND
% NONINFRINGEMENT. IN NO EVENT SHALL THE AUTHORS OR COPYRIGHT HOLDERS BE
% LIABLE FOR ANY CLAIM, DAMAGES OR OTHER LIABILITY, WHETHER IN AN ACTION
% OF CONTRACT, TORT OR OTHERWISE, ARISING FROM, OUT OF OR IN CONNECTION
% WITH THE SOFTWARE OR THE USE OR OTHER DEALINGS IN THE SOFTWARE.

%-----------------------------------------------------------------------------%
% Dual Arm Multi Capacity Multi Tool Scheduling / Routing
% Assembly Configuration
% Auto Generated by python script, authored by Johan Ludde Wessen 
%-----------------------------------------------------------------------------%


task_durations = [|25, 23, 29, 27, 28, 33, 24, 28, 27, 30, 32, 51, 50, 42, 44, 54, 47, 46, 56, 49, 40, 52, 35, 25, 37, 37, 29,  5,  6,  7,  4,  7,  8,  6,  5,  6,  6
                  |30, 24, 34, 24, 28, 32, 23, 25, 24, 29, 30, 50, 49, 44, 42, 55, 55, 44, 47, 45, 46, 61, 30, 26, 36, 31, 25,  7,  6,  5,  6,  8,  7,  8,  4,  6,  7
                  |];


TRAY_TASKS = 1..9;
CAMERA_TASKS = 23..27;
OUTPUT_TASKS = { 22 };


empty_gripper_tasks = 28..37;


gripper_pick_tasks_orders = [|1, 12, -1
|2, 13, -1
|3, 14, -1
|4, 15, -1
|10, 21, -1
|11, 22, -1
|];

suction_pick_tasks_orders = [|5, 23, 16, -1
|6, 24, 17, -1
|7, 25, 18, -1
|8, 26, 19, -1
|9, 27, 20, -1
|];

fixture_task_orders = [|16, 32, 12, 28, 17, 33, 13, 29, 18, 34, 10, -1
|14, 30, 19, 35, 15, 31, 20, 36, 21, 37, 11, -1
|];

